(set-logic ALL)
(declare-const k Int)
(declare-fun s () (_ BitVec k))
(declare-fun t () (_ BitVec k))
(assert (distinct (bvurem s (bvlshr t (bvsub (_ bv1 k) t))) (bvurem s (bvlshr t (bvshl t t)))))
(check-sat)
